&GLOBAL
    PROJECT  MoS2_aimd
    RUN_TYPE MD             
    IOLEVEL  LOW 
&END GLOBAL
&FORCE_EVAL
    METHOD Quickstep
    &DFT
        BASIS_SET_FILE_NAME  BASIS_MOLOPT
        POTENTIAL_FILE_NAME  GTH_POTENTIALS
        CHARGE -4
        &QS
            EPS_DEFAULT 1.0E-10
        &END QS  
        &MGRID
            NGRIDS 4
            CUTOFF 600
            REL_CUTOFF 60
        &END MGRID
        &PRINT
            &E_DENSITY_CUBE OFF
            &END E_DENSITY_CUBE
        &END PRINT
        &XC
            &XC_FUNCTIONAL PBE
            &END XC_FUNCTIONAL
        &END XC    
        &SCF
            SCF_GUESS ATOMIC
            EPS_SCF 1.0E-6
            MAX_SCF 10
            &OT ON
                MINIMIZER DIIS
                PRECONDITIONER FULL_SINGLE_INVERSE
            &END OT
            &OUTER_SCF
                MAX_SCF 10
            &END OUTER_SCF
            &PRINT
                &RESTART OFF
                &END RESTART
            &END PRINT
        &END SCF
    &END DFT   

    &SUBSYS
        &KIND Mo                       
            ELEMENT  Mo
            BASIS_SET DZVP-MOLOPT-SR-GTH 
            POTENTIAL GTH-PBE-q14
        &END KIND
        &KIND S                      
            ELEMENT   S
            BASIS_SET DZVP-MOLOPT-SR-GTH 
            POTENTIAL GTH-PBE-q6
        &END KIND
        &CELL
        A     1.5927208628313819E+01    0.0000000000000000E+00    0.0000000000000000E+00
       B    -7.9634159743407711E+00    1.3793478106273774E+01    0.0000000000000000E+00
       C    -7.7462081203006682E-06   -8.4551972510786549E-06    1.3223809774270340E+01
       PERIODIC  XYZ
       MULTIPLE_UNIT_CELL  1 1 1
     &END CELL
     &COORD
Mo    8.4196103236126372E-05    1.8390930177571800E+00    3.3059500545993723E+00
Mo    1.5926665560475028E+00    9.1959285835236970E-01    9.9178704128041346E+00
S    1.5927928869009100E+00    9.1953031082269054E-01    4.8707242334712841E+00
S   -4.0236909308255543E-05    1.8391588491750592E+00    1.1482614679623712E+01
S    1.5927919688094383E+00    9.1952689809052857E-01    1.7411942845749320E+00
S   -4.1803336040784845E-05    1.8391592276600013E+00    8.3530837417442729E+00
Mo   -1.5925976212400905E+00    4.5977890313906000E+00    3.3059623588507034E+00
Mo   -1.5505478996564941E-05    3.6782889667652348E+00    9.9178535104668750E+00
S    1.0893435256753553E-04    3.6782253856619529E+00    4.8707181678083993E+00
S   -1.5927239486341951E+00    4.5978548648444262E+00    1.1482616159367733E+01
S    1.1020513238676771E-04    3.6782206014823875E+00    1.7411876379472466E+00
S   -1.5927230806293977E+00    4.5978545784383664E+00    8.3530856405869045E+00
Mo   -3.1852810870158534E+00    7.3564850009000740E+00    3.3059716718102519E+00
Mo   -1.5926984797800965E+00    6.4369851069841824E+00    9.9178533809836544E+00
S   -1.5925740620581967E+00    6.4369188007478835E+00    4.8707139459741136E+00
S   -3.1854081781227537E+00    7.3565512220531497E+00    1.1482614012402379E+01
S   -1.5925721155914596E+00    6.4369194668228413E+00    1.7411836029830239E+00
S   -3.1854068810495852E+00    7.3565488528354663E+00    8.3530836450799413E+00
Mo   -4.7779658113951475E+00    1.0115180842135663E+01    3.3059656014695937E+00
Mo   -3.1853824428726107E+00    9.1956799450129623E+00    9.9178689992546634E+00
S   -3.1852570250781449E+00    9.1956125789792562E+00    4.8707167974582282E+00
S   -4.7780906747837983E+00    1.0115245852927693E+01    1.1482610986229432E+01
S   -3.1852577620221747E+00    9.1956178186432069E+00    1.7411869343582682E+00
S   -4.7780924876677151E+00    1.0115244240456779E+01    8.3530810941887719E+00
Mo   -6.3706493783686824E+00    1.2873876326893505E+01    3.3059527001321909E+00
Mo   -4.7780668259866275E+00    1.1954375510453399E+01    9.9178800041558333E+00
S   -4.7779399487244012E+00    1.1954309502347453E+01    4.8707234815471887E+00
S   -6.3707729698009823E+00    1.2873941134878695E+01    1.1482612203291577E+01
S   -4.7779431765967928E+00    1.1954312682421151E+01    1.7411931356554056E+00
S   -6.3707767205014614E+00    1.2873940553804520E+01    8.3530815070805122E+00
Mo    3.1855260714850404E+00    1.8390938959974985E+00    3.3059538956303700E+00
Mo    4.7781070983500369E+00    9.1959335780738993E-01    9.9178814774002593E+00
S    4.7782354406360019E+00    9.1952928932036937E-01    4.8707219201892462E+00
S    3.1854016799003397E+00    1.8391572498069564E+00    1.1482609713732854E+01
S    4.7782326936734334E+00    9.1952740302173286E-01    1.7411922906609820E+00
S    3.1853968916747006E+00    1.8391582229870855E+00    8.3530784302738095E+00
Mo    1.5928422388826613E+00    4.5977884551742747E+00    3.3059615092705212E+00
Mo    3.1854256491968083E+00    3.6782876941734934E+00    9.9178678845717005E+00
S    3.1855519883691774E+00    3.6782254850554836E+00    4.8707190983572017E+00
S    1.5927196078875279E+00    4.5978529996284729E+00    1.1482614215861627E+01
S    3.1855508852802470E+00    3.6782217551649379E+00    1.7411891477000276E+00
S    1.5927168404931724E+00    4.5978544330365843E+00    8.3530834032287213E+00
Mo    1.5920959137490532E-04    7.3564842495882248E+00    3.3059703418056867E+00
Mo    1.5927433210581148E+00    6.4369842030964781E+00    9.9178622850287503E+00
S    1.5928671283361757E+00    6.4369181453479118E+00    4.8707165728816895E+00
S    1.5928676585213133E+00    6.4369187588691110E+00    1.7411868269560042E+00
S    3.5509301429284692E-05    7.3565484403648593E+00    8.3530841347293521E+00
Mo   -1.5925244208326474E+00    1.0115180274110255E+01    3.3059671830778994E+00
Mo    6.0458897882780512E-05    9.1956800048447622E+00    9.9178715062915046E+00
S    1.8331485288057512E-04    9.1956128171037363E+00    4.8707200600902620E+00
S   -1.5926489767054013E+00    1.0115247206180220E+01    1.1482609073916406E+01
S    1.8452939023360724E-04    9.1956166750726407E+00    1.7411890280302365E+00
S   -1.5926481856126349E+00    1.0115242551866961E+01    8.3530795288134705E+00
Mo   -3.1852081034462496E+00    1.2873875951571490E+01    3.3059567950130635E+00
Mo   -1.5926251142061030E+00    1.1954375902020574E+01    9.9178833417142016E+00
S   -1.5924993573673987E+00    1.1954309752075060E+01    4.8707209650229970E+00
S   -3.1853321580159704E+00    1.2873941997323385E+01    1.1482606331083472E+01
S   -1.5925008902420517E+00    1.1954311142181112E+01    1.7411912966922218E+00
S   -3.1853354682541002E+00    1.2873939924455279E+01    8.3530762118136437E+00
Mo    6.3709681918227581E+00    1.8390933416264292E+00    3.3059525127901184E+00
Mo    7.9635483802386542E+00    9.1959470495996554E-01    9.9178818648046683E+00
S    7.9636772226775117E+00    9.1952885710561194E-01    4.8707198110927887E+00
S    6.3708405942471185E+00    1.8391594353701008E+00    1.1482603943152062E+01
S    7.9636759649056463E+00    9.1952644420923024E-01    1.7411901517018058E+00
S    6.3708395351153753E+00    1.8391591157027525E+00    8.3530735350730883E+00
Mo    4.7782854185665551E+00    4.5977879833026503E+00    3.3059589464179511E+00
Mo    6.3708652780034436E+00    3.6782890770893593E+00    9.9178739145403121E+00
S    6.3709955146315682E+00    3.6782244253235947E+00    4.8707171707662713E+00
S    4.7781597407111125E+00    4.5978521425509165E+00    1.1482608748918832E+01
S    6.3709932275021162E+00    3.6782218431148426E+00    1.7411874558865685E+00
S    4.7781555829432323E+00    4.5978560717318757E+00    8.3530779976155110E+00
Mo    3.1856013036742472E+00    7.3564838419897640E+00    3.3059625530778831E+00
Mo    4.7781825857985343E+00    6.4369847327548007E+00    9.9178726093071710E+00
S    4.7783105247334081E+00    6.4369176576542415E+00    4.8707170514119342E+00
S    4.7783093083014343E+00    6.4369190059826638E+00    1.7411874311270157E+00
S    3.1854752157548201E+00    7.3565519825538752E+00    8.3530831304545554E+00
Mo    1.5929171100031680E+00    1.0115180614693717E+01    3.3059594706556372E+00
Mo    3.1855013555697962E+00    9.1956823760877526E+00    9.9178776440276764E+00
S    3.1856246698147217E+00    9.1956119684345587E+00    4.8707214353623014E+00
S    1.5927919418522043E+00    1.0115249115884998E+01    1.1482611180136468E+01
S    3.1856258829398612E+00    9.1956167219126037E+00    1.7411920897831077E+00
S    1.5927943053990063E+00    1.0115245611386527E+01    8.3530809456169965E+00
Mo    2.3390865388997823E-04    1.2873875342382741E+01    3.3059513666495426E+00
Mo    1.5928166222802125E+00    1.1954377754664291E+01    9.9178828125913032E+00
S    1.5929415366642623E+00    1.1954310544279247E+01    4.8707228960940325E+00
S    1.0627865133477251E-04    1.2873943706581580E+01    1.1482605215181117E+01
S    1.5929437992788715E+00    1.1954310735480144E+01    1.7411933842842235E+00
S    1.0869276325839251E-04    1.2873940989163479E+01    8.3530750475180309E+00
Mo    9.5564103882064906E+00    1.8390934747807541E+00    3.3059479041342454E+00
Mo    1.1148990753147707E+01    9.1959673707358236E-01    9.9178709701194627E+00
S    1.1149117850737836E+01    9.1953022480164170E-01    4.8707214115580841E+00
S    9.5562790852693187E+00    1.8391617816550847E+00    1.1482606325738715E+01
S    1.1149119292377126E+01    9.1952528584614945E-01    1.7411915257148405E+00
S    9.5562836776786941E+00    1.8391610811341865E+00    8.3530764378351954E+00
Mo    7.9637275744483595E+00    4.5977890723370987E+00    3.3059589341780407E+00
Mo    9.5563067413462246E+00    3.6782912098014111E+00    9.9178644504847231E+00
S    9.5564365055951530E+00    3.6782252715637411E+00    4.8707149262108222E+00
S    7.9635971998926944E+00    4.5978539634827031E+00    1.1482606256159158E+01
S    9.5564356447892713E+00    3.6782221749688717E+00    1.7411851162673933E+00
S    7.9635980170586960E+00    4.5978577266137783E+00    8.3530738044017827E+00
Mo    6.3710435215206598E+00    7.3564839152630146E+00    3.3059605261833149E+00
Mo    7.9636237092660123E+00    6.4369854193137765E+00    9.9178686814790247E+00
S    7.9637536330197758E+00    6.4369179766107489E+00    4.8707148965458966E+00
S    6.3709161335984854E+00    7.3565490044390733E+00    1.1482611304178045E+01
S    7.9637516324666358E+00    6.4369201034149430E+00    1.7411850691128332E+00
S    6.3709143821829022E+00    7.3565529555466824E+00    8.3530809826140935E+00
Mo    4.7783587302999138E+00    1.0115179651223304E+01    3.3059535556441944E+00
Mo    6.3709417386887708E+00    9.1956812326819026E+00    9.9178777562099061E+00
S    6.3710680268558333E+00    9.1956106898959238E+00    4.8707217733667543E+00
S    4.7782338105671611E+00    1.0115248799436712E+01    1.1482613484878092E+01
S    6.3710667723264045E+00    9.1956170729182745E+00    1.7411923588088254E+00
S    4.7782345796095091E+00    1.0115248577043555E+01    8.3530833167961074E+00
Mo    3.1856770536193224E+00    1.2873875322356945E+01    3.3059452312138280E+00
Mo    4.7782587415936941E+00    1.1954379049158881E+01    9.9178782595198101E+00
S    4.7783841478628517E+00    1.1954309441893439E+01    4.8707265913317155E+00
S    3.1855474820660170E+00    1.2873945449189488E+01    1.1482609986584377E+01
S    4.7783857257894438E+00    1.1954310555198390E+01    1.7411967255516363E+00
S    3.1855519423749308E+00    1.2873943995942048E+01    8.3530803396702353E+00
Mo    1.2741852130625420E+01    1.8390929122100717E+00    3.3059466332225425E+00
Mo    1.4334433845725524E+01    9.1959483258875541E-01    9.9178634148334996E+00
S    1.4334559465414344E+01    9.1952995499859480E-01    4.8707240388692181E+00
S    1.2741723734490037E+01    1.8391601647754194E+00    1.1482613728825530E+01
S    1.4334560688862132E+01    9.1952471438280914E-01    1.7411936984855476E+00
S    1.2741727188241669E+01    1.8391608404891924E+00    8.3530829883826012E+00
Mo    1.1149169469281027E+01    4.5977890268010917E+00    3.3059602838440232E+00
Mo    1.2741750837342913E+01    3.6782896858646352E+00    9.9178529225604510E+00
S    1.2741877026677273E+01    3.6782255562365465E+00    4.8707154020700978E+00
S    1.1149038923923001E+01    4.5978541102844881E+00    1.1482611992047657E+01
S    1.2741878435647790E+01    3.6782208737608846E+00    1.7411855330303676E+00
S    1.1149044361976401E+01    4.5978560153098975E+00    8.3530818526318651E+00
Mo    9.5564859716372030E+00    7.3564841703834176E+00    3.3059662174111177E+00
Mo    1.1149066653151641E+01    6.4369847274224226E+00    9.9178588823508296E+00
S    1.1149195182007340E+01    6.4369184801893526E+00    4.8707127252058759E+00
S    9.5563565906457768E+00    7.3565486789761980E+00    1.1482611743736189E+01
S    1.1149194593646632E+01    6.4369200788175736E+00    1.7411825250557189E+00
S    9.5563590511737200E+00    7.3565505346571447E+00    8.3530816656644475E+00
Mo    7.9638014418764111E+00    1.0115179538956024E+01    3.3059573452164348E+00
Mo    9.5563831440731573E+00    9.1956799876324897E+00    9.9178728821122260E+00
S    9.5565113056589261E+00    9.1956113211678190E+00    4.8707190755884806E+00
S    7.9636760502554482E+00    1.0115245277698104E+01    1.1482613735590425E+01
S    9.5565085663936156E+00    9.1956177993405639E+00    1.7411891182498025E+00
S    7.9636747202227331E+00    1.0115245953806960E+01    8.3530830215560368E+00
Mo    6.3711184594219263E+00    1.2873875702116143E+01    3.3059456361340849E+00
Mo    7.9637006744724550E+00    1.1954375970281129E+01    9.9178764810085198E+00
S    7.9638273072536405E+00    1.1954308727952759E+01    4.8707265424319397E+00
S    6.3709927252477208E+00    1.2873943282750492E+01    1.1482614125893337E+01
S    7.9638258042982208E+00    1.1954311419680192E+01    1.7411966289182177E+00
S    6.3709933483749301E+00    1.2873942773583343E+01    8.3530836570287423E+00
     &END COORD
    &END SUBSYS
&END FORCE_EVAL

&MOTION
    &MD
        ENSEMBLE    NVT
        TEMPERATURE 1200
        TIMESTEP    1
        STEPS       2000
        &THERMOSTAT
            TYPE NOSE
            &NOSE
                TIMECON 50
            &END NOSE
        &END THERMOSTAT 
    &END MD
    &PRINT
        &TRAJECTORY
            &EACH
                MD 1
            &END EACH
        &END TRAJECTORY
        &VELOCITIES OFF
        &END VELOCITIES
        &FORCES OFF
        &END FORCES
        &RESTART_HISTORY
            &EACH
                MD 500
            &END EACH
        &END RESTART_HISTORY
        &RESTART
            BACKUP_COPIES 3
            &EACH
                MD 1
            &END EACH
        &END RESTART
    &END PRINT
&END MOTION
